p cnf 15 21
15 -12 -3 0
15 -11 10 0
-15 11 9 0
14 -11 -4 0
-14 8 1 0
14 2 1 0
-13 -11 -1 0
13 -9 -5 0
-13 8 3 0
-13 -6 5 0
-12 11 6 0
12 7 -3 0
-12 -7 -2 0
-11 10 -1 0
11 -6 2 0
-11 5 3 0
10 9 3 0
-10 3 2 0
8 -6 1 0
6 -5 -4 0
-6 3 2 0
